% seed = 0

mint = 28;
% maxt = 88;

nActs = 32;
dur = [0,3,4,3,3,4,4,3,4,2,4,6,3,2,3,3,3,2,2,3,1,3,3,2,1,2,2,4,5,1,3,0];

nSkills = 15;
sreq = [| 0,0,0,0,0,0,0,0,0,0,0,0,0,0,0,
	| 0,0,0,0,1,0,0,0,1,0,0,0,2,0,0,
	| 0,0,2,0,0,0,0,1,1,0,0,0,1,1,0,
	| 1,0,1,0,1,1,0,0,1,1,1,0,0,0,0,
	| 0,0,0,0,0,2,0,0,1,0,0,0,1,0,0,
	| 0,0,0,0,1,1,0,0,1,0,0,1,0,2,0,
	| 0,0,0,0,0,2,0,0,1,0,1,0,1,1,0,
	| 0,0,0,0,0,1,0,0,0,0,0,1,0,0,0,
	| 0,0,0,0,0,1,0,0,0,0,1,0,0,0,0,
	| 0,0,1,0,0,0,0,0,2,0,2,0,0,1,0,
	| 0,0,0,0,1,1,0,0,1,1,0,1,0,0,0,
	| 0,0,1,0,0,0,0,0,0,0,0,0,0,1,0,
	| 0,0,1,0,0,0,0,0,0,0,0,0,1,0,0,
	| 0,0,0,0,0,1,1,0,1,0,1,0,0,2,0,
	| 0,0,0,0,0,0,0,0,2,0,0,2,0,1,0,
	| 0,0,0,0,1,0,0,0,0,0,0,0,0,0,0,
	| 0,0,1,0,1,0,0,1,0,0,0,1,1,1,0,
	| 0,0,0,0,0,0,0,0,1,0,0,1,0,0,0,
	| 0,0,0,0,0,0,0,0,0,0,0,0,1,0,0,
	| 0,0,1,0,0,1,0,0,1,0,0,1,0,0,0,
	| 0,0,0,0,0,0,0,0,1,0,0,0,0,0,0,
	| 0,1,0,0,2,0,0,0,0,0,1,1,1,0,0,
	| 0,0,0,1,0,2,0,0,2,0,1,0,0,0,0,
	| 0,0,0,0,0,0,0,0,1,0,0,0,0,0,1,
	| 0,0,0,0,0,0,0,0,0,0,0,0,0,1,0,
	| 0,0,1,0,0,1,1,0,1,1,0,1,0,0,0,
	| 0,0,0,1,0,0,0,0,0,0,0,0,0,0,0,
	| 0,0,1,0,0,0,0,0,1,0,0,0,0,0,0,
	| 0,0,0,0,1,0,0,0,1,0,1,0,2,0,0,
	| 0,0,1,0,0,3,0,0,1,0,0,0,0,0,0,
	| 0,0,0,0,0,0,0,1,2,0,1,1,0,1,0,
	| 0,0,0,0,0,0,0,0,0,0,0,0,0,0,0, |];

% SumOfsreq = 118;

nResources = 20;
mastery = [| false,false,false,false,false,false,false,false,true,true,true,true,false,false,false,
	| false,false,false,false,false,false,false,false,false,false,false,false,true,true,true,
	| false,false,false,false,false,false,false,false,false,false,true,true,false,false,false,
	| false,false,false,false,false,false,false,false,true,false,false,false,false,false,false,
	| false,false,false,false,true,true,false,false,false,false,false,false,false,false,false,
	| false,false,false,false,false,false,false,false,true,false,false,false,false,false,false,
	| false,false,true,false,false,false,false,false,false,false,false,false,false,false,false,
	| false,false,false,false,false,false,false,true,true,false,false,false,false,false,true,
	| false,false,false,false,false,false,false,false,false,false,true,true,false,false,false,
	| false,false,false,false,true,true,false,false,false,false,false,false,true,true,true,
	| false,false,false,true,true,true,false,false,false,false,false,false,false,false,false,
	| true,true,true,false,true,true,false,true,true,false,false,false,false,false,false,
	| false,false,true,true,true,true,false,false,false,false,false,false,false,false,true,
	| false,false,false,false,false,true,true,true,true,false,false,false,false,false,false,
	| false,false,false,true,true,true,false,false,false,true,true,true,true,true,true,
	| false,false,false,false,false,false,false,false,false,false,false,true,false,false,false,
	| false,false,false,false,false,false,false,false,false,false,false,false,true,true,true,
	| false,false,false,true,true,true,false,false,false,true,true,true,false,false,false,
	| false,false,false,false,false,true,false,false,false,false,false,false,false,false,false,
	| false,false,false,false,false,false,false,false,false,false,false,false,false,false,true, |];

nPrecs = 48;
pred = [1,1,1,2,3,3,4,4,4,5,5,5,6,7,7,7,8,9,10,10,11,11,12,12,12,13,13,14,15,15,16,16,17,18,19,19,20,21,22,23,24,25,26,27,28,29,30,31];
succ = [2,3,4,14,31,23,19,5,15,11,6,7,9,10,12,8,18,22,30,24,17,27,20,13,16,27,28,15,22,30,17,28,25,26,20,29,21,27,26,25,29,29,31,31,30,32,32,32];

nUnrels = 291;
unpred = [2,2,2,2,2,2,2,2,2,2,2,2,2,2,2,2,2,2,2,2,2,2,2,3,3,3,3,3,3,3,3,3,3,3,3,3,3,3,3,3,3,3,3,3,3,3,3,4,4,5,5,5,5,6,6,6,6,6,6,6,6,6,6,6,6,6,6,6,6,6,6,6,6,6,7,7,7,7,7,7,7,8,8,8,8,8,8,8,8,8,8,8,8,8,8,8,8,8,8,8,8,9,9,9,9,9,9,9,9,9,9,9,9,9,9,9,9,9,9,9,10,10,10,10,10,10,10,10,10,10,10,10,10,10,10,10,10,10,11,11,11,11,11,11,11,11,11,11,11,11,11,11,11,12,12,12,12,12,12,12,12,13,13,13,13,13,13,13,13,13,13,13,13,13,13,14,14,14,14,14,14,14,14,14,14,14,14,15,15,15,15,15,15,15,15,15,15,15,15,16,16,16,16,16,16,16,16,16,16,17,17,17,17,17,17,17,17,17,17,17,17,18,18,18,18,18,18,18,18,18,18,18,19,19,19,19,19,19,19,20,20,20,20,20,20,20,20,21,21,21,21,21,21,21,21,22,22,22,22,22,22,22,23,23,23,23,23,23,24,24,24,24,24,24,25,25,25,25,25,26,26,26,26,27,27,27,28,28,29,29,30];
unsucc = [3,4,5,6,7,8,9,10,11,12,13,16,17,18,19,20,21,23,24,25,27,28,29,4,5,6,7,8,9,10,11,12,13,14,15,16,17,18,19,20,21,22,24,26,27,28,30,14,23,14,15,19,23,7,8,10,11,12,13,14,15,16,17,18,19,20,21,23,24,25,27,28,29,30,9,11,14,15,19,22,23,9,10,11,12,13,14,15,16,17,19,20,21,22,23,24,25,27,28,29,30,10,11,12,13,14,15,16,17,18,19,20,21,23,24,25,27,28,29,30,11,12,13,14,15,16,17,18,19,20,21,22,23,25,26,27,28,31,12,13,14,15,16,18,19,20,21,22,23,24,26,28,30,14,15,18,19,22,23,24,26,14,15,16,17,18,19,20,21,22,23,24,25,26,29,16,17,18,19,20,21,23,24,25,27,28,29,16,17,18,19,20,21,23,24,25,27,28,29,18,19,20,21,22,23,24,26,27,31,18,19,20,21,22,23,24,26,27,28,30,31,19,20,21,22,23,24,25,27,28,29,30,22,23,24,25,26,28,30,22,23,24,25,26,28,29,30,22,23,24,25,26,28,29,30,23,24,25,27,28,29,30,24,26,27,28,30,31,25,26,27,28,30,31,26,27,28,30,31,27,28,29,30,28,29,30,29,31,30,31,31];

USEFUL_RES = [{},
	{1,2,4,5,6,8,10,11,12,13,14,15,17,18},
	{1,2,4,6,7,8,10,12,13,14,15,17},
	{1,3,4,5,6,7,8,9,10,11,12,13,14,15,18,19},
	{1,2,4,5,6,8,10,11,12,13,14,15,17,18,19},
	{1,2,3,4,5,6,8,9,10,11,12,13,14,15,16,17,18,19},
	{1,2,3,4,5,6,8,9,10,11,12,13,14,15,17,18,19},
	{1,3,5,9,10,11,12,13,14,15,16,18,19},
	{1,3,5,9,10,11,12,13,14,15,18,19},
	{1,2,3,4,6,7,8,9,10,12,13,14,15,17,18},
	{1,3,4,5,6,8,9,10,11,12,13,14,15,16,18,19},
	{2,7,10,12,13,15,17},
	{2,7,10,12,13,15,17},
	{1,2,3,4,5,6,8,9,10,11,12,13,14,15,17,18,19},
	{1,2,3,4,6,8,9,10,12,14,15,16,17,18},
	{5,10,11,12,13,15,18},
	{1,2,3,5,7,8,9,10,11,12,13,14,15,16,17,18},
	{1,3,4,6,8,9,12,14,15,16,18},
	{2,10,15,17},
	{1,3,4,5,6,7,8,9,10,11,12,13,14,15,16,18,19},
	{1,4,6,8,12,14},
	{1,2,3,5,9,10,11,12,13,15,16,17,18},
	{1,3,4,5,6,8,9,10,11,12,13,14,15,18,19},
	{1,2,4,6,8,10,12,13,14,15,17,20},
	{2,10,15,17},
	{1,3,4,5,6,7,8,9,10,11,12,13,14,15,16,18,19},
	{11,13,15,18},
	{1,4,6,7,8,12,13,14},
	{1,2,3,4,5,6,8,9,10,11,12,13,14,15,17,18},
	{1,4,5,6,7,8,10,11,12,13,14,15,18,19},
	{1,2,3,4,6,8,9,10,12,14,15,16,17,18},
	{}];

POTENTIAL_ACT = [{2,3,4,5,6,7,8,9,10,11,14,15,17,18,20,21,22,23,24,26,28,29,30,31},
	{2,3,5,6,7,10,12,13,14,15,17,19,22,24,25,29,31},
	{4,6,7,8,9,10,11,14,15,17,18,20,22,23,26,29,31},
	{2,3,4,5,6,7,10,11,14,15,18,20,21,23,24,26,28,29,30,31},
	{2,4,5,6,7,8,9,11,14,16,17,20,22,23,26,29,30},
	{2,3,4,5,6,7,10,11,14,15,18,20,21,23,24,26,28,29,30,31},
	{3,4,10,12,13,17,20,26,28,30},
	{2,3,4,5,6,7,10,11,14,15,17,18,20,21,23,24,26,28,29,30,31},
	{4,6,7,8,9,10,11,14,15,17,18,20,22,23,26,29,31},
	{2,3,4,5,6,7,8,9,10,11,12,13,14,15,16,17,19,20,22,23,24,25,26,29,30,31},
	{2,4,5,6,7,8,9,11,14,16,17,20,22,23,26,27,29,30},
	{2,3,4,5,6,7,8,9,10,11,12,13,14,15,16,17,18,20,21,22,23,24,26,28,29,30,31},
	{2,3,4,5,6,7,8,9,10,11,12,13,14,16,17,20,22,23,24,26,27,28,29,30},
	{2,3,4,5,6,7,8,9,10,11,14,15,17,18,20,21,23,24,26,28,29,30,31},
	{2,3,4,5,6,7,8,9,10,11,12,13,14,15,16,17,18,19,20,22,23,24,25,26,27,29,30,31},
	{6,8,11,15,17,18,20,22,26,31},
	{2,3,5,6,7,10,12,13,14,15,17,19,22,24,25,29,31},
	{2,4,5,6,7,8,9,10,11,14,15,16,17,18,20,22,23,26,27,29,30,31},
	{4,5,6,7,8,9,11,14,20,23,26,30},
	{24}];
